c This file is generated by v2cnfMtr
c Generated on Sat Feb 20 20:00:31 2016
p cnf 683 2072
-1 -2 -86 0
1 2 -86 0
1 -2 86 0
-1 2 86 0
-3 -4 -87 0
3 4 -87 0
3 -4 87 0
-3 4 87 0
-5 -6 -88 0
5 6 -88 0
5 -6 88 0
-5 6 88 0
-7 -8 -89 0
7 8 -89 0
7 -8 89 0
-7 8 89 0
-9 -10 -90 0
9 10 -90 0
9 -10 90 0
-9 10 90 0
-11 -12 -91 0
11 12 -91 0
11 -12 91 0
-11 12 91 0
-13 -14 -92 0
13 14 -92 0
13 -14 92 0
-13 14 92 0
-15 -16 -93 0
15 16 -93 0
15 -16 93 0
-15 16 93 0
-17 -18 -94 0
17 18 -94 0
17 -18 94 0
-17 18 94 0
-19 -20 -95 0
19 20 -95 0
19 -20 95 0
-19 20 95 0
-21 -22 -96 0
21 22 -96 0
21 -22 96 0
-21 22 96 0
-23 -24 -97 0
23 24 -97 0
23 -24 97 0
-23 24 97 0
-25 -26 -98 0
25 26 -98 0
25 -26 98 0
-25 26 98 0
-27 -28 -99 0
27 28 -99 0
27 -28 99 0
-27 28 99 0
-29 -30 -100 0
29 30 -100 0
29 -30 100 0
-29 30 100 0
-31 -32 -101 0
31 32 -101 0
31 -32 101 0
-31 32 101 0
-33 -41 102 0
33 -102 0
41 -102 0
-34 -41 103 0
34 -103 0
41 -103 0
-35 -41 104 0
35 -104 0
41 -104 0
-36 -41 105 0
36 -105 0
41 -105 0
-37 -41 106 0
37 -106 0
41 -106 0
-38 -41 107 0
38 -107 0
41 -107 0
-39 -41 108 0
39 -108 0
41 -108 0
-40 -41 109 0
40 -109 0
41 -109 0
-1 -5 -110 0
1 5 -110 0
1 -5 110 0
-1 5 110 0
-9 -13 -111 0
9 13 -111 0
9 -13 111 0
-9 13 111 0
-2 -6 -112 0
2 6 -112 0
2 -6 112 0
-2 6 112 0
-10 -14 -113 0
10 14 -113 0
10 -14 113 0
-10 14 113 0
-3 -7 -114 0
3 7 -114 0
3 -7 114 0
-3 7 114 0
-11 -15 -115 0
11 15 -115 0
11 -15 115 0
-11 15 115 0
-4 -8 -116 0
4 8 -116 0
4 -8 116 0
-4 8 116 0
-12 -16 -117 0
12 16 -117 0
12 -16 117 0
-12 16 117 0
-17 -21 -118 0
17 21 -118 0
17 -21 118 0
-17 21 118 0
-25 -29 -119 0
25 29 -119 0
25 -29 119 0
-25 29 119 0
-18 -22 -120 0
18 22 -120 0
18 -22 120 0
-18 22 120 0
-26 -30 -121 0
26 30 -121 0
26 -30 121 0
-26 30 121 0
-19 -23 -122 0
19 23 -122 0
19 -23 122 0
-19 23 122 0
-27 -31 -123 0
27 31 -123 0
27 -31 123 0
-27 31 123 0
-20 -24 -124 0
20 24 -124 0
20 -24 124 0
-20 24 124 0
-28 -32 -125 0
28 32 -125 0
28 -32 125 0
-28 32 125 0
-86 -87 -126 0
86 87 -126 0
86 -87 126 0
-86 87 126 0
-88 -89 -127 0
88 89 -127 0
88 -89 127 0
-88 89 127 0
-90 -91 -128 0
90 91 -128 0
90 -91 128 0
-90 91 128 0
-92 -93 -129 0
92 93 -129 0
92 -93 129 0
-92 93 129 0
-94 -95 -130 0
94 95 -130 0
94 -95 130 0
-94 95 130 0
-96 -97 -131 0
96 97 -131 0
96 -97 131 0
-96 97 131 0
-98 -99 -132 0
98 99 -132 0
98 -99 132 0
-98 99 132 0
-100 -101 -133 0
100 101 -133 0
100 -101 133 0
-100 101 133 0
-110 -111 -134 0
110 111 -134 0
110 -111 134 0
-110 111 134 0
-112 -113 -135 0
112 113 -135 0
112 -113 135 0
-112 113 135 0
-114 -115 -136 0
114 115 -136 0
114 -115 136 0
-114 115 136 0
-116 -117 -137 0
116 117 -137 0
116 -117 137 0
-116 117 137 0
-118 -119 -138 0
118 119 -138 0
118 -119 138 0
-118 119 138 0
-120 -121 -139 0
120 121 -139 0
120 -121 139 0
-120 121 139 0
-122 -123 -140 0
122 123 -140 0
122 -123 140 0
-122 123 140 0
-124 -125 -141 0
124 125 -141 0
124 -125 141 0
-124 125 141 0
-126 -127 -142 0
126 127 -142 0
126 -127 142 0
-126 127 142 0
-128 -129 -143 0
128 129 -143 0
128 -129 143 0
-128 129 143 0
-126 -128 -144 0
126 128 -144 0
126 -128 144 0
-126 128 144 0
-127 -129 -145 0
127 129 -145 0
127 -129 145 0
-127 129 145 0
-130 -131 -146 0
130 131 -146 0
130 -131 146 0
-130 131 146 0
-132 -133 -147 0
132 133 -147 0
132 -133 147 0
-132 133 147 0
-130 -132 -148 0
130 132 -148 0
130 -132 148 0
-130 132 148 0
-131 -133 -149 0
131 133 -149 0
131 -133 149 0
-131 133 149 0
-102 -146 -150 0
102 146 -150 0
102 -146 150 0
-102 146 150 0
-103 -147 -151 0
103 147 -151 0
103 -147 151 0
-103 147 151 0
-104 -148 -152 0
104 148 -152 0
104 -148 152 0
-104 148 152 0
-105 -149 -153 0
105 149 -153 0
105 -149 153 0
-105 149 153 0
-106 -142 -154 0
106 142 -154 0
106 -142 154 0
-106 142 154 0
-107 -143 -155 0
107 143 -155 0
107 -143 155 0
-107 143 155 0
-108 -144 -156 0
108 144 -156 0
108 -144 156 0
-108 144 156 0
-109 -145 -157 0
109 145 -157 0
109 -145 157 0
-109 145 157 0
-134 -150 -158 0
134 150 -158 0
134 -150 158 0
-134 150 158 0
-135 -151 -159 0
135 151 -159 0
135 -151 159 0
-135 151 159 0
-136 -152 -160 0
136 152 -160 0
136 -152 160 0
-136 152 160 0
-137 -153 -161 0
137 153 -161 0
137 -153 161 0
-137 153 161 0
-138 -154 -162 0
138 154 -162 0
138 -154 162 0
-138 154 162 0
-139 -155 -163 0
139 155 -163 0
139 -155 163 0
-139 155 163 0
-140 -156 -164 0
140 156 -164 0
140 -156 164 0
-140 156 164 0
-141 -157 -165 0
141 157 -165 0
141 -157 165 0
-141 157 165 0
158 166 0
-158 -166 0
159 167 0
-159 -167 0
160 168 0
-160 -168 0
158 169 0
-158 -169 0
159 170 0
-159 -170 0
161 171 0
-161 -171 0
158 172 0
-158 -172 0
160 173 0
-160 -173 0
161 174 0
-161 -174 0
159 175 0
-159 -175 0
160 176 0
-160 -176 0
161 177 0
-161 -177 0
163 178 0
-163 -178 0
165 179 0
-165 -179 0
163 180 0
-163 -180 0
164 181 0
-164 -181 0
162 182 0
-162 -182 0
165 183 0
-165 -183 0
162 184 0
-162 -184 0
164 185 0
-164 -185 0
162 186 0
-162 -186 0
163 187 0
-163 -187 0
164 188 0
-164 -188 0
162 189 0
-162 -189 0
163 190 0
-163 -190 0
165 191 0
-165 -191 0
162 192 0
-162 -192 0
164 193 0
-164 -193 0
165 194 0
-165 -194 0
163 195 0
-163 -195 0
164 196 0
-164 -196 0
165 197 0
-165 -197 0
159 198 0
-159 -198 0
161 199 0
-161 -199 0
159 200 0
-159 -200 0
160 201 0
-160 -201 0
158 202 0
-158 -202 0
161 203 0
-161 -203 0
158 204 0
-158 -204 0
160 205 0
-160 -205 0
-166 -167 -168 -161 206 0
166 -206 0
167 -206 0
168 -206 0
161 -206 0
-169 -170 -160 -171 207 0
169 -207 0
170 -207 0
160 -207 0
171 -207 0
-172 -159 -173 -174 208 0
172 -208 0
159 -208 0
173 -208 0
174 -208 0
-158 -175 -176 -177 209 0
158 -209 0
175 -209 0
176 -209 0
177 -209 0
-186 -187 -188 -165 210 0
186 -210 0
187 -210 0
188 -210 0
165 -210 0
-189 -190 -164 -191 211 0
189 -211 0
190 -211 0
164 -211 0
191 -211 0
-192 -163 -193 -194 212 0
192 -212 0
163 -212 0
193 -212 0
194 -212 0
-162 -195 -196 -197 213 0
162 -213 0
195 -213 0
196 -213 0
197 -213 0
206 207 208 209 -214 0
-206 214 0
-207 214 0
-208 214 0
-209 214 0
210 211 212 213 -215 0
-210 215 0
-211 215 0
-212 215 0
-213 215 0
-162 -178 -164 -179 -214 216 0
162 -216 0
178 -216 0
164 -216 0
179 -216 0
214 -216 0
-162 -180 -181 -165 -214 217 0
162 -217 0
180 -217 0
181 -217 0
165 -217 0
214 -217 0
-182 -163 -164 -183 -214 218 0
182 -218 0
163 -218 0
164 -218 0
183 -218 0
214 -218 0
-184 -163 -185 -165 -214 219 0
184 -219 0
163 -219 0
185 -219 0
165 -219 0
214 -219 0
-158 -198 -160 -199 -215 220 0
158 -220 0
198 -220 0
160 -220 0
199 -220 0
215 -220 0
-158 -200 -201 -161 -215 221 0
158 -221 0
200 -221 0
201 -221 0
161 -221 0
215 -221 0
-202 -159 -160 -203 -215 222 0
202 -222 0
159 -222 0
160 -222 0
203 -222 0
215 -222 0
-204 -159 -205 -161 -215 223 0
204 -223 0
159 -223 0
205 -223 0
161 -223 0
215 -223 0
-158 -216 224 0
158 -224 0
216 -224 0
-159 -216 225 0
159 -225 0
216 -225 0
-160 -216 226 0
160 -226 0
216 -226 0
-161 -216 227 0
161 -227 0
216 -227 0
-158 -217 228 0
158 -228 0
217 -228 0
-159 -217 229 0
159 -229 0
217 -229 0
-160 -217 230 0
160 -230 0
217 -230 0
-158 -218 232 0
158 -232 0
218 -232 0
-159 -218 233 0
159 -233 0
218 -233 0
-160 -218 234 0
160 -234 0
218 -234 0
-161 -218 235 0
161 -235 0
218 -235 0
-158 -219 236 0
158 -236 0
219 -236 0
-159 -219 237 0
159 -237 0
219 -237 0
-160 -219 238 0
160 -238 0
219 -238 0
-161 -219 239 0
161 -239 0
219 -239 0
-162 -220 240 0
162 -240 0
220 -240 0
-163 -220 241 0
163 -241 0
220 -241 0
-164 -220 242 0
164 -242 0
220 -242 0
-165 -220 243 0
165 -243 0
220 -243 0
-162 -221 244 0
162 -244 0
221 -244 0
-163 -221 245 0
163 -245 0
221 -245 0
-164 -221 246 0
164 -246 0
221 -246 0
-165 -221 247 0
165 -247 0
221 -247 0
-162 -222 248 0
162 -248 0
222 -248 0
-163 -222 249 0
163 -249 0
222 -249 0
-164 -222 250 0
164 -250 0
222 -250 0
-165 -222 251 0
165 -251 0
222 -251 0
-162 -223 252 0
162 -252 0
223 -252 0
-163 -223 253 0
163 -253 0
223 -253 0
-164 -223 254 0
164 -254 0
223 -254 0
-165 -223 255 0
165 -255 0
223 -255 0
-1 -224 -54 0
1 224 -54 0
1 -224 54 0
-1 224 54 0
-2 -225 -55 0
2 225 -55 0
2 -225 55 0
-2 225 55 0
-3 -226 -56 0
3 226 -56 0
3 -226 56 0
-3 226 56 0
-4 -227 -57 0
4 227 -57 0
4 -227 57 0
-4 227 57 0
-5 -228 -58 0
5 228 -58 0
5 -228 58 0
-5 228 58 0
-6 -229 -59 0
6 229 -59 0
6 -229 59 0
-6 229 59 0
-7 -230 -60 0
7 230 -60 0
7 -230 60 0
-7 230 60 0
-8 -231 -61 0
8 231 -61 0
8 -231 61 0
-8 231 61 0
-9 -232 -62 0
9 232 -62 0
9 -232 62 0
-9 232 62 0
-10 -233 -63 0
10 233 -63 0
10 -233 63 0
-10 233 63 0
-11 -234 -64 0
11 234 -64 0
11 -234 64 0
-11 234 64 0
-12 -235 -65 0
12 235 -65 0
12 -235 65 0
-12 235 65 0
-13 -236 -66 0
13 236 -66 0
13 -236 66 0
-13 236 66 0
-14 -237 -67 0
14 237 -67 0
14 -237 67 0
-14 237 67 0
-15 -238 -68 0
15 238 -68 0
15 -238 68 0
-15 238 68 0
-16 -239 -69 0
16 239 -69 0
16 -239 69 0
-16 239 69 0
-17 -240 -70 0
17 240 -70 0
17 -240 70 0
-17 240 70 0
-18 -241 -71 0
18 241 -71 0
18 -241 71 0
-18 241 71 0
-19 -242 -72 0
19 242 -72 0
19 -242 72 0
-19 242 72 0
-20 -243 -73 0
20 243 -73 0
20 -243 73 0
-20 243 73 0
-21 -244 -74 0
21 244 -74 0
21 -244 74 0
-21 244 74 0
-22 -245 -75 0
22 245 -75 0
22 -245 75 0
-22 245 75 0
-23 -246 -76 0
23 246 -76 0
23 -246 76 0
-23 246 76 0
-24 -247 -77 0
24 247 -77 0
24 -247 77 0
-24 247 77 0
-25 -248 -78 0
25 248 -78 0
25 -248 78 0
-25 248 78 0
-26 -249 -79 0
26 249 -79 0
26 -249 79 0
-26 249 79 0
-27 -250 -80 0
27 250 -80 0
27 -250 80 0
-27 250 80 0
-28 -251 -81 0
28 251 -81 0
28 -251 81 0
-28 251 81 0
-29 -252 -82 0
29 252 -82 0
29 -252 82 0
-29 252 82 0
-30 -253 -83 0
30 253 -83 0
30 -253 83 0
-30 253 83 0
-31 -254 -84 0
31 254 -84 0
31 -254 84 0
-31 254 84 0
-32 -255 -85 0
32 255 -85 0
32 -255 85 0
-32 255 85 0
44 256 0
-44 -256 0
45 257 0
-45 -257 0
161 258 0
-161 -258 0
-161 -256 260 0
161 -260 0
256 -260 0
-258 -256 261 0
258 -261 0
256 -261 0
-42 -44 262 0
42 -262 0
44 -262 0
-43 -44 263 0
43 -263 0
44 -263 0
-260 -257 269 0
260 -269 0
257 -269 0
-261 -45 267 0
261 -267 0
45 -267 0
-262 -257 265 0
262 -265 0
257 -265 0
-263 -45 264 0
263 -264 0
45 -264 0
264 265 -266 0
-264 266 0
-265 266 0
266 267 -268 0
-266 268 0
-267 268 0
269 268 -259 0
-269 259 0
-268 259 0
46 270 0
-46 -270 0
47 271 0
-47 -271 0
217 272 0
-217 -272 0
-217 -270 274 0
217 -274 0
270 -274 0
-272 -270 275 0
272 -275 0
270 -275 0
-42 -46 276 0
42 -276 0
46 -276 0
-43 -46 277 0
43 -277 0
46 -277 0
-274 -271 283 0
274 -283 0
271 -283 0
-275 -47 281 0
275 -281 0
47 -281 0
-276 -271 279 0
276 -279 0
271 -279 0
-277 -47 278 0
277 -278 0
47 -278 0
278 279 -280 0
-278 280 0
-279 280 0
280 281 -282 0
-280 282 0
-281 282 0
283 282 -273 0
-283 273 0
-282 273 0
48 284 0
-48 -284 0
49 285 0
-49 -285 0
2 286 0
-2 -286 0
-2 -284 288 0
2 -288 0
284 -288 0
-286 -284 289 0
286 -289 0
284 -289 0
-42 -48 290 0
42 -290 0
48 -290 0
-43 -48 291 0
43 -291 0
48 -291 0
-288 -285 297 0
288 -297 0
285 -297 0
-289 -49 295 0
289 -295 0
49 -295 0
-290 -285 293 0
290 -293 0
285 -293 0
-291 -49 292 0
291 -292 0
49 -292 0
292 293 -294 0
-292 294 0
-293 294 0
294 295 -296 0
-294 296 0
-295 296 0
297 296 -287 0
-297 287 0
-296 287 0
50 298 0
-50 -298 0
51 299 0
-51 -299 0
1 300 0
-1 -300 0
-1 -298 302 0
1 -302 0
298 -302 0
-300 -298 303 0
300 -303 0
298 -303 0
-42 -50 304 0
42 -304 0
50 -304 0
-43 -50 305 0
43 -305 0
50 -305 0
-302 -299 311 0
302 -311 0
299 -311 0
-303 -51 309 0
303 -309 0
51 -309 0
-304 -299 307 0
304 -307 0
299 -307 0
-305 -51 306 0
305 -306 0
51 -306 0
306 307 -308 0
-306 308 0
-307 308 0
308 309 -310 0
-308 310 0
-309 310 0
311 310 -301 0
-311 301 0
-310 301 0
52 312 0
-52 -312 0
53 313 0
-53 -313 0
315 314 0
-315 -314 0
-315 -312 316 0
315 -316 0
312 -316 0
-314 -312 317 0
314 -317 0
312 -317 0
-42 -52 318 0
42 -318 0
52 -318 0
-43 -52 319 0
43 -319 0
52 -319 0
-316 -313 325 0
316 -325 0
313 -325 0
-317 -53 323 0
317 -323 0
53 -323 0
-318 -313 321 0
318 -321 0
313 -321 0
-319 -53 320 0
319 -320 0
53 -320 0
320 321 -322 0
-320 322 0
-321 322 0
322 323 -324 0
-322 324 0
-323 324 0
325 324 -231 0
-325 231 0
-324 231 0
-259 -273 -287 -301 -315 0
259 315 0
273 315 0
287 315 0
301 315 0
c The second circuit:
-326 -327 -411 0
326 327 -411 0
326 -327 411 0
-326 327 411 0
-328 -329 -412 0
328 329 -412 0
328 -329 412 0
-328 329 412 0
-330 -331 -413 0
330 331 -413 0
330 -331 413 0
-330 331 413 0
-332 -333 -414 0
332 333 -414 0
332 -333 414 0
-332 333 414 0
-334 -335 -415 0
334 335 -415 0
334 -335 415 0
-334 335 415 0
-336 -337 -416 0
336 337 -416 0
336 -337 416 0
-336 337 416 0
-338 -339 -417 0
338 339 -417 0
338 -339 417 0
-338 339 417 0
-340 -341 -418 0
340 341 -418 0
340 -341 418 0
-340 341 418 0
-342 -343 -419 0
342 343 -419 0
342 -343 419 0
-342 343 419 0
-344 -345 -420 0
344 345 -420 0
344 -345 420 0
-344 345 420 0
-346 -347 -421 0
346 347 -421 0
346 -347 421 0
-346 347 421 0
-348 -349 -422 0
348 349 -422 0
348 -349 422 0
-348 349 422 0
-350 -351 -423 0
350 351 -423 0
350 -351 423 0
-350 351 423 0
-352 -353 -424 0
352 353 -424 0
352 -353 424 0
-352 353 424 0
-354 -355 -425 0
354 355 -425 0
354 -355 425 0
-354 355 425 0
-356 -357 -426 0
356 357 -426 0
356 -357 426 0
-356 357 426 0
-358 -366 427 0
358 -427 0
366 -427 0
-359 -366 428 0
359 -428 0
366 -428 0
-360 -366 429 0
360 -429 0
366 -429 0
-361 -366 430 0
361 -430 0
366 -430 0
-362 -366 431 0
362 -431 0
366 -431 0
-363 -366 432 0
363 -432 0
366 -432 0
-364 -366 433 0
364 -433 0
366 -433 0
-365 -366 434 0
365 -434 0
366 -434 0
-326 -330 -435 0
326 330 -435 0
326 -330 435 0
-326 330 435 0
-334 -338 -436 0
334 338 -436 0
334 -338 436 0
-334 338 436 0
-327 -331 -437 0
327 331 -437 0
327 -331 437 0
-327 331 437 0
-335 -339 -438 0
335 339 -438 0
335 -339 438 0
-335 339 438 0
-328 -332 -439 0
328 332 -439 0
328 -332 439 0
-328 332 439 0
-336 -340 -440 0
336 340 -440 0
336 -340 440 0
-336 340 440 0
-329 -333 -441 0
329 333 -441 0
329 -333 441 0
-329 333 441 0
-337 -341 -442 0
337 341 -442 0
337 -341 442 0
-337 341 442 0
-342 -346 -443 0
342 346 -443 0
342 -346 443 0
-342 346 443 0
-350 -354 -444 0
350 354 -444 0
350 -354 444 0
-350 354 444 0
-343 -347 -445 0
343 347 -445 0
343 -347 445 0
-343 347 445 0
-351 -355 -446 0
351 355 -446 0
351 -355 446 0
-351 355 446 0
-344 -348 -447 0
344 348 -447 0
344 -348 447 0
-344 348 447 0
-352 -356 -448 0
352 356 -448 0
352 -356 448 0
-352 356 448 0
-345 -349 -449 0
345 349 -449 0
345 -349 449 0
-345 349 449 0
-353 -357 -450 0
353 357 -450 0
353 -357 450 0
-353 357 450 0
-411 -412 -451 0
411 412 -451 0
411 -412 451 0
-411 412 451 0
-413 -414 -452 0
413 414 -452 0
413 -414 452 0
-413 414 452 0
-415 -416 -453 0
415 416 -453 0
415 -416 453 0
-415 416 453 0
-417 -418 -454 0
417 418 -454 0
417 -418 454 0
-417 418 454 0
-419 -420 -455 0
419 420 -455 0
419 -420 455 0
-419 420 455 0
-421 -422 -456 0
421 422 -456 0
421 -422 456 0
-421 422 456 0
-423 -424 -457 0
423 424 -457 0
423 -424 457 0
-423 424 457 0
-425 -426 -458 0
425 426 -458 0
425 -426 458 0
-425 426 458 0
-435 -436 -459 0
435 436 -459 0
435 -436 459 0
-435 436 459 0
-437 -438 -460 0
437 438 -460 0
437 -438 460 0
-437 438 460 0
-439 -440 -461 0
439 440 -461 0
439 -440 461 0
-439 440 461 0
-441 -442 -462 0
441 442 -462 0
441 -442 462 0
-441 442 462 0
-443 -444 -463 0
443 444 -463 0
443 -444 463 0
-443 444 463 0
-445 -446 -464 0
445 446 -464 0
445 -446 464 0
-445 446 464 0
-447 -448 -465 0
447 448 -465 0
447 -448 465 0
-447 448 465 0
-449 -450 -466 0
449 450 -466 0
449 -450 466 0
-449 450 466 0
-451 -452 -467 0
451 452 -467 0
451 -452 467 0
-451 452 467 0
-453 -454 -468 0
453 454 -468 0
453 -454 468 0
-453 454 468 0
-451 -453 -469 0
451 453 -469 0
451 -453 469 0
-451 453 469 0
-452 -454 -470 0
452 454 -470 0
452 -454 470 0
-452 454 470 0
-455 -456 -471 0
455 456 -471 0
455 -456 471 0
-455 456 471 0
-457 -458 -472 0
457 458 -472 0
457 -458 472 0
-457 458 472 0
-455 -457 -473 0
455 457 -473 0
455 -457 473 0
-455 457 473 0
-456 -458 -474 0
456 458 -474 0
456 -458 474 0
-456 458 474 0
-427 -471 -475 0
427 471 -475 0
427 -471 475 0
-427 471 475 0
-428 -472 -476 0
428 472 -476 0
428 -472 476 0
-428 472 476 0
-429 -473 -477 0
429 473 -477 0
429 -473 477 0
-429 473 477 0
-430 -474 -478 0
430 474 -478 0
430 -474 478 0
-430 474 478 0
-431 -467 -479 0
431 467 -479 0
431 -467 479 0
-431 467 479 0
-432 -468 -480 0
432 468 -480 0
432 -468 480 0
-432 468 480 0
-433 -469 -481 0
433 469 -481 0
433 -469 481 0
-433 469 481 0
-434 -470 -482 0
434 470 -482 0
434 -470 482 0
-434 470 482 0
-459 -475 -483 0
459 475 -483 0
459 -475 483 0
-459 475 483 0
-460 -476 -484 0
460 476 -484 0
460 -476 484 0
-460 476 484 0
-461 -477 -485 0
461 477 -485 0
461 -477 485 0
-461 477 485 0
-462 -478 -486 0
462 478 -486 0
462 -478 486 0
-462 478 486 0
-463 -479 -487 0
463 479 -487 0
463 -479 487 0
-463 479 487 0
-464 -480 -488 0
464 480 -488 0
464 -480 488 0
-464 480 488 0
-465 -481 -489 0
465 481 -489 0
465 -481 489 0
-465 481 489 0
-466 -482 -490 0
466 482 -490 0
466 -482 490 0
-466 482 490 0
483 491 0
-483 -491 0
484 492 0
-484 -492 0
485 493 0
-485 -493 0
483 494 0
-483 -494 0
484 495 0
-484 -495 0
486 496 0
-486 -496 0
483 497 0
-483 -497 0
485 498 0
-485 -498 0
486 499 0
-486 -499 0
484 500 0
-484 -500 0
485 501 0
-485 -501 0
486 502 0
-486 -502 0
488 503 0
-488 -503 0
490 504 0
-490 -504 0
488 505 0
-488 -505 0
489 506 0
-489 -506 0
487 507 0
-487 -507 0
490 508 0
-490 -508 0
487 509 0
-487 -509 0
489 510 0
-489 -510 0
487 511 0
-487 -511 0
488 512 0
-488 -512 0
489 513 0
-489 -513 0
487 514 0
-487 -514 0
488 515 0
-488 -515 0
490 516 0
-490 -516 0
487 517 0
-487 -517 0
489 518 0
-489 -518 0
490 519 0
-490 -519 0
488 520 0
-488 -520 0
489 521 0
-489 -521 0
490 522 0
-490 -522 0
484 523 0
-484 -523 0
486 524 0
-486 -524 0
484 525 0
-484 -525 0
485 526 0
-485 -526 0
483 527 0
-483 -527 0
486 528 0
-486 -528 0
483 529 0
-483 -529 0
485 530 0
-485 -530 0
-491 -492 -493 -486 531 0
491 -531 0
492 -531 0
493 -531 0
486 -531 0
-494 -495 -485 -496 532 0
494 -532 0
495 -532 0
485 -532 0
496 -532 0
-497 -484 -498 -499 533 0
497 -533 0
484 -533 0
498 -533 0
499 -533 0
-483 -500 -501 -502 534 0
483 -534 0
500 -534 0
501 -534 0
502 -534 0
-511 -512 -513 -490 535 0
511 -535 0
512 -535 0
513 -535 0
490 -535 0
-514 -515 -489 -516 536 0
514 -536 0
515 -536 0
489 -536 0
516 -536 0
-517 -488 -518 -519 537 0
517 -537 0
488 -537 0
518 -537 0
519 -537 0
-487 -520 -521 -522 538 0
487 -538 0
520 -538 0
521 -538 0
522 -538 0
531 532 533 534 -539 0
-531 539 0
-532 539 0
-533 539 0
-534 539 0
535 536 537 538 -540 0
-535 540 0
-536 540 0
-537 540 0
-538 540 0
-487 -503 -489 -504 -539 541 0
487 -541 0
503 -541 0
489 -541 0
504 -541 0
539 -541 0
-487 -505 -506 -490 -539 542 0
487 -542 0
505 -542 0
506 -542 0
490 -542 0
539 -542 0
-507 -488 -489 -508 -539 543 0
507 -543 0
488 -543 0
489 -543 0
508 -543 0
539 -543 0
-509 -488 -510 -490 -539 544 0
509 -544 0
488 -544 0
510 -544 0
490 -544 0
539 -544 0
-483 -523 -485 -524 -540 545 0
483 -545 0
523 -545 0
485 -545 0
524 -545 0
540 -545 0
-483 -525 -526 -486 -540 546 0
483 -546 0
525 -546 0
526 -546 0
486 -546 0
540 -546 0
-527 -484 -485 -528 -540 547 0
527 -547 0
484 -547 0
485 -547 0
528 -547 0
540 -547 0
-529 -484 -530 -486 -540 548 0
529 -548 0
484 -548 0
530 -548 0
486 -548 0
540 -548 0
-483 -541 549 0
483 -549 0
541 -549 0
-484 -541 550 0
484 -550 0
541 -550 0
-485 -541 551 0
485 -551 0
541 -551 0
-486 -541 552 0
486 -552 0
541 -552 0
-483 -542 553 0
483 -553 0
542 -553 0
-484 -542 554 0
484 -554 0
542 -554 0
-485 -542 555 0
485 -555 0
542 -555 0
-483 -543 557 0
483 -557 0
543 -557 0
-484 -543 558 0
484 -558 0
543 -558 0
-485 -543 559 0
485 -559 0
543 -559 0
-486 -543 560 0
486 -560 0
543 -560 0
-483 -544 561 0
483 -561 0
544 -561 0
-484 -544 562 0
484 -562 0
544 -562 0
-485 -544 563 0
485 -563 0
544 -563 0
-486 -544 564 0
486 -564 0
544 -564 0
-487 -545 565 0
487 -565 0
545 -565 0
-488 -545 566 0
488 -566 0
545 -566 0
-489 -545 567 0
489 -567 0
545 -567 0
-490 -545 568 0
490 -568 0
545 -568 0
-487 -546 569 0
487 -569 0
546 -569 0
-488 -546 570 0
488 -570 0
546 -570 0
-489 -546 571 0
489 -571 0
546 -571 0
-490 -546 572 0
490 -572 0
546 -572 0
-487 -547 573 0
487 -573 0
547 -573 0
-488 -547 574 0
488 -574 0
547 -574 0
-489 -547 575 0
489 -575 0
547 -575 0
-490 -547 576 0
490 -576 0
547 -576 0
-487 -548 577 0
487 -577 0
548 -577 0
-488 -548 578 0
488 -578 0
548 -578 0
-489 -548 579 0
489 -579 0
548 -579 0
-490 -548 580 0
490 -580 0
548 -580 0
-326 -549 -379 0
326 549 -379 0
326 -549 379 0
-326 549 379 0
-327 -550 -380 0
327 550 -380 0
327 -550 380 0
-327 550 380 0
-328 -551 -381 0
328 551 -381 0
328 -551 381 0
-328 551 381 0
-329 -552 -382 0
329 552 -382 0
329 -552 382 0
-329 552 382 0
-330 -553 -383 0
330 553 -383 0
330 -553 383 0
-330 553 383 0
-331 -554 -384 0
331 554 -384 0
331 -554 384 0
-331 554 384 0
-332 -555 -385 0
332 555 -385 0
332 -555 385 0
-332 555 385 0
-333 -556 -386 0
333 556 -386 0
333 -556 386 0
-333 556 386 0
-334 -557 -387 0
334 557 -387 0
334 -557 387 0
-334 557 387 0
-335 -558 -388 0
335 558 -388 0
335 -558 388 0
-335 558 388 0
-336 -559 -389 0
336 559 -389 0
336 -559 389 0
-336 559 389 0
-337 -560 -390 0
337 560 -390 0
337 -560 390 0
-337 560 390 0
-338 -561 -391 0
338 561 -391 0
338 -561 391 0
-338 561 391 0
-339 -562 -392 0
339 562 -392 0
339 -562 392 0
-339 562 392 0
-340 -563 -393 0
340 563 -393 0
340 -563 393 0
-340 563 393 0
-341 -564 -394 0
341 564 -394 0
341 -564 394 0
-341 564 394 0
-342 -565 -395 0
342 565 -395 0
342 -565 395 0
-342 565 395 0
-343 -566 -396 0
343 566 -396 0
343 -566 396 0
-343 566 396 0
-344 -567 -397 0
344 567 -397 0
344 -567 397 0
-344 567 397 0
-345 -568 -398 0
345 568 -398 0
345 -568 398 0
-345 568 398 0
-346 -569 -399 0
346 569 -399 0
346 -569 399 0
-346 569 399 0
-347 -570 -400 0
347 570 -400 0
347 -570 400 0
-347 570 400 0
-348 -571 -401 0
348 571 -401 0
348 -571 401 0
-348 571 401 0
-349 -572 -402 0
349 572 -402 0
349 -572 402 0
-349 572 402 0
-350 -573 -403 0
350 573 -403 0
350 -573 403 0
-350 573 403 0
-351 -574 -404 0
351 574 -404 0
351 -574 404 0
-351 574 404 0
-352 -575 -405 0
352 575 -405 0
352 -575 405 0
-352 575 405 0
-353 -576 -406 0
353 576 -406 0
353 -576 406 0
-353 576 406 0
-354 -577 -407 0
354 577 -407 0
354 -577 407 0
-354 577 407 0
-355 -578 -408 0
355 578 -408 0
355 -578 408 0
-355 578 408 0
-356 -579 -409 0
356 579 -409 0
356 -579 409 0
-356 579 409 0
-357 -580 -410 0
357 580 -410 0
357 -580 410 0
-357 580 410 0
369 581 0
-369 -581 0
370 582 0
-370 -582 0
486 583 0
-486 -583 0
-486 -581 585 0
486 -585 0
581 -585 0
-583 -581 586 0
583 -586 0
581 -586 0
-367 -369 587 0
367 -587 0
369 -587 0
-368 -369 588 0
368 -588 0
369 -588 0
-585 -582 594 0
585 -594 0
582 -594 0
-586 -370 592 0
586 -592 0
370 -592 0
-587 -582 590 0
587 -590 0
582 -590 0
-588 -370 589 0
588 -589 0
370 -589 0
589 590 -591 0
-589 591 0
-590 591 0
591 592 -593 0
-591 593 0
-592 593 0
594 593 -584 0
-594 584 0
-593 584 0
371 595 0
-371 -595 0
372 596 0
-372 -596 0
542 597 0
-542 -597 0
-542 -595 599 0
542 -599 0
595 -599 0
-597 -595 600 0
597 -600 0
595 -600 0
-367 -371 601 0
367 -601 0
371 -601 0
-368 -371 602 0
368 -602 0
371 -602 0
-599 -596 608 0
599 -608 0
596 -608 0
-600 -372 606 0
600 -606 0
372 -606 0
-601 -596 604 0
601 -604 0
596 -604 0
-602 -372 603 0
602 -603 0
372 -603 0
603 604 -605 0
-603 605 0
-604 605 0
605 606 -607 0
-605 607 0
-606 607 0
608 607 -598 0
-608 598 0
-607 598 0
373 609 0
-373 -609 0
374 610 0
-374 -610 0
327 611 0
-327 -611 0
-327 -609 613 0
327 -613 0
609 -613 0
-611 -609 614 0
611 -614 0
609 -614 0
-367 -373 615 0
367 -615 0
373 -615 0
-368 -373 616 0
368 -616 0
373 -616 0
-613 -610 622 0
613 -622 0
610 -622 0
-614 -374 620 0
614 -620 0
374 -620 0
-615 -610 618 0
615 -618 0
610 -618 0
-616 -374 617 0
616 -617 0
374 -617 0
617 618 -619 0
-617 619 0
-618 619 0
619 620 -621 0
-619 621 0
-620 621 0
622 621 -612 0
-622 612 0
-621 612 0
375 623 0
-375 -623 0
376 624 0
-376 -624 0
326 625 0
-326 -625 0
-326 -623 627 0
326 -627 0
623 -627 0
-625 -623 628 0
625 -628 0
623 -628 0
-367 -375 629 0
367 -629 0
375 -629 0
-368 -375 630 0
368 -630 0
375 -630 0
-627 -624 636 0
627 -636 0
624 -636 0
-628 -376 634 0
628 -634 0
376 -634 0
-629 -624 632 0
629 -632 0
624 -632 0
-630 -376 631 0
630 -631 0
376 -631 0
631 632 -633 0
-631 633 0
-632 633 0
633 634 -635 0
-633 635 0
-634 635 0
636 635 -626 0
-636 626 0
-635 626 0
377 637 0
-377 -637 0
378 638 0
-378 -638 0
640 639 0
-640 -639 0
-640 -637 641 0
640 -641 0
637 -641 0
-639 -637 642 0
639 -642 0
637 -642 0
-367 -377 643 0
367 -643 0
377 -643 0
-368 -377 644 0
368 -644 0
377 -644 0
-641 -638 650 0
641 -650 0
638 -650 0
-642 -378 648 0
642 -648 0
378 -648 0
-643 -638 646 0
643 -646 0
638 -646 0
-644 -378 645 0
644 -645 0
378 -645 0
645 646 -647 0
-645 647 0
-646 647 0
647 648 -649 0
-647 649 0
-648 649 0
650 649 -556 0
-650 556 0
-649 556 0
-584 -598 -612 -626 -640 0
584 640 0
598 640 0
612 640 0
626 640 0
42 0
-43 0
c Force PIs of 2 ckts to be the same:
1 -326 0
-1 326 0
2 -327 0
-2 327 0
3 -328 0
-3 328 0
4 -329 0
-4 329 0
5 -330 0
-5 330 0
6 -331 0
-6 331 0
7 -332 0
-7 332 0
8 -333 0
-8 333 0
9 -334 0
-9 334 0
10 -335 0
-10 335 0
11 -336 0
-11 336 0
12 -337 0
-12 337 0
13 -338 0
-13 338 0
14 -339 0
-14 339 0
15 -340 0
-15 340 0
16 -341 0
-16 341 0
17 -342 0
-17 342 0
18 -343 0
-18 343 0
19 -344 0
-19 344 0
20 -345 0
-20 345 0
21 -346 0
-21 346 0
22 -347 0
-22 347 0
23 -348 0
-23 348 0
24 -349 0
-24 349 0
25 -350 0
-25 350 0
26 -351 0
-26 351 0
27 -352 0
-27 352 0
28 -353 0
-28 353 0
29 -354 0
-29 354 0
30 -355 0
-30 355 0
31 -356 0
-31 356 0
32 -357 0
-32 357 0
33 -358 0
-33 358 0
34 -359 0
-34 359 0
35 -360 0
-35 360 0
36 -361 0
-36 361 0
37 -362 0
-37 362 0
38 -363 0
-38 363 0
39 -364 0
-39 364 0
40 -365 0
-40 365 0
41 -366 0
-41 366 0
42 -367 0
-42 367 0
43 -368 0
-43 368 0
c XOR outputs of 2 ckts:
-54 -379 -651 0
54 379 -651 0
54 -379 651 0
-54 379 651 0
-55 -380 -652 0
55 380 -652 0
55 -380 652 0
-55 380 652 0
-56 -381 -653 0
56 381 -653 0
56 -381 653 0
-56 381 653 0
-57 -382 -654 0
57 382 -654 0
57 -382 654 0
-57 382 654 0
-58 -383 -655 0
58 383 -655 0
58 -383 655 0
-58 383 655 0
-59 -384 -656 0
59 384 -656 0
59 -384 656 0
-59 384 656 0
-60 -385 -657 0
60 385 -657 0
60 -385 657 0
-60 385 657 0
-61 -386 -658 0
61 386 -658 0
61 -386 658 0
-61 386 658 0
-62 -387 -659 0
62 387 -659 0
62 -387 659 0
-62 387 659 0
-63 -388 -660 0
63 388 -660 0
63 -388 660 0
-63 388 660 0
-64 -389 -661 0
64 389 -661 0
64 -389 661 0
-64 389 661 0
-65 -390 -662 0
65 390 -662 0
65 -390 662 0
-65 390 662 0
-66 -391 -663 0
66 391 -663 0
66 -391 663 0
-66 391 663 0
-67 -392 -664 0
67 392 -664 0
67 -392 664 0
-67 392 664 0
-68 -393 -665 0
68 393 -665 0
68 -393 665 0
-68 393 665 0
-69 -394 -666 0
69 394 -666 0
69 -394 666 0
-69 394 666 0
-70 -395 -667 0
70 395 -667 0
70 -395 667 0
-70 395 667 0
-71 -396 -668 0
71 396 -668 0
71 -396 668 0
-71 396 668 0
-72 -397 -669 0
72 397 -669 0
72 -397 669 0
-72 397 669 0
-73 -398 -670 0
73 398 -670 0
73 -398 670 0
-73 398 670 0
-74 -399 -671 0
74 399 -671 0
74 -399 671 0
-74 399 671 0
-75 -400 -672 0
75 400 -672 0
75 -400 672 0
-75 400 672 0
-76 -401 -673 0
76 401 -673 0
76 -401 673 0
-76 401 673 0
-77 -402 -674 0
77 402 -674 0
77 -402 674 0
-77 402 674 0
-78 -403 -675 0
78 403 -675 0
78 -403 675 0
-78 403 675 0
-79 -404 -676 0
79 404 -676 0
79 -404 676 0
-79 404 676 0
-80 -405 -677 0
80 405 -677 0
80 -405 677 0
-80 405 677 0
-81 -406 -678 0
81 406 -678 0
81 -406 678 0
-81 406 678 0
-82 -407 -679 0
82 407 -679 0
82 -407 679 0
-82 407 679 0
-83 -408 -680 0
83 408 -680 0
83 -408 680 0
-83 408 680 0
-84 -409 -681 0
84 409 -681 0
84 -409 681 0
-84 409 681 0
-85 -410 -682 0
85 410 -682 0
85 -410 682 0
-85 410 682 0
c The last OR gate of the miter:
651 652 653 654 655 656 657 658 659 660 661 662 663 664 665 666 667 668 669 670 671 672 673 674 675 676 677 678 679 680 681 682 -683 0
-651 683 0
-652 683 0
-653 683 0
-654 683 0
-655 683 0
-656 683 0
-657 683 0
-658 683 0
-659 683 0
-660 683 0
-661 683 0
-662 683 0
-663 683 0
-664 683 0
-665 683 0
-666 683 0
-667 683 0
-668 683 0
-669 683 0
-670 683 0
-671 683 0
-672 683 0
-673 683 0
-674 683 0
-675 683 0
-676 683 0
-677 683 0
-678 683 0
-679 683 0
-680 683 0
-681 683 0
-682 683 0
683 0
